nTasks=4;
nThreads=9;
nCPUs=3;
nCores=5;
rh=[796.45673877 274.476472619 760.742485702 473.487889137 619.112407305 877.282754269 316.02185974 310.474634652 908.70197575];
rc=[503.522826931 701.907760787 590.196644402];
CK=[
	[1 1 0 0 0]
	[0 0 1 1 0]
	[0 0 0 0 1]
];
TH=[
	[1 1 1 0 0 0 0 0 0]
	[0 0 0 1 1 0 0 0 0]
	[0 0 0 0 0 1 0 0 0]
	[0 0 0 0 0 0 1 1 1]
];
